c Random generated cnf formula, satisfiable: true
p cnf 10 50
-8 7 3 0
10 9 -7 0
7 8 -6 0
-8 10 4 0
3 -9 8 0
7 8 1 0
8 5 7 0
-2 10 -4 0
-8 7 6 0
7 5 10 0
-6 3 -10 0
-5 7 6 0
-10 -4 -9 0
-10 -1 -9 0
-8 3 -2 0
-4 8 5 0
7 -1 9 0
-4 -8 1 0
2 9 1 0
1 3 5 0
9 -3 4 0
-6 -9 2 0
7 -10 8 0
-6 9 -4 0
-6 5 -8 0
6 -4 1 0
-2 -9 3 0
6 4 -9 0
-2 -4 -6 0
-1 7 10 0
-8 -7 -2 0
8 -2 10 0
-4 -3 6 0
-4 8 5 0
1 -4 7 0
3 6 1 0
-4 8 -9 0
7 6 -9 0
-1 -6 8 0
-6 -4 2 0
-3 7 -9 0
7 5 -9 0
4 -1 2 0
-9 -6 -3 0
-3 2 -5 0
5 -8 -2 0
-4 10 -7 0
-9 5 -2 0
1 -7 -10 0
-3 6 9 0
